tsp_instances/TSP20/instance115.tsp
NODE_COORD_SECTION
0 182 69
1 160 85
2 61 47
3 71 123
4 127 140
5 36 4
6 200 73
7 62 59
8 196 161
9 164 168
10 105 60
11 193 162
12 139 127
13 184 17
14 100 62
15 91 185
16 3 101
17 92 105
18 136 155
19 61 11
