tsp_instances/TSP20/instance115.opt.tour
TOUR_SECTION
1
2
13
5
19
9
12
10
16
18
4
17
6
20
3
8
15
11
14
7
-1